Set parameter TokenServer to value "opt-license.discovery.wisc.edu"
Set parameter TimeLimit to value 1800
Gurobi Optimizer version 9.5.1 build v9.5.1rc2 (linux64)
Thread count: 40 physical cores, 80 logical processors, using up to 32 threads
Optimize a model with 4841 rows, 6960 columns and 25292 nonzeros
Model fingerprint: 0xc93dd933
Variable types: 5360 continuous, 1600 integer (1600 binary)
Coefficient statistics:
  Matrix range     [1e+00, 1e+03]
  Objective range  [1e+00, 8e+00]
  Bounds range     [1e+00, 1e+00]
  RHS range        [1e+00, 4e+00]
Presolve removed 80 rows and 134 columns
Presolve time: 0.11s
Presolved: 4761 rows, 6826 columns, 25016 nonzeros
Variable types: 5226 continuous, 1600 integer (1600 binary)

Root relaxation: objective 5.043681e+01, 933 iterations, 0.07 seconds (0.04 work units)

    Nodes    |    Current Node    |     Objective Bounds      |     Work
 Expl Unexpl |  Obj  Depth IntInf | Incumbent    BestBd   Gap | It/Node Time

     0     0   50.43681    0   55          -   50.43681      -     -    0s
H    0     0                      52.1509026   50.43681  3.29%     -    0s
     0     0   51.00035    0   90   52.15090   51.00035  2.21%     -    0s
     0     0   51.00035    0   49   52.15090   51.00035  2.21%     -    0s
     0     0   51.15032    0  125   52.15090   51.15032  1.92%     -    0s
     0     0   51.28370    0  145   52.15090   51.28370  1.66%     -    1s
     0     0   51.28611    0  135   52.15090   51.28611  1.66%     -    1s
H    0     0                      51.7273939   51.62526  0.20%     -    1s

Cutting planes:
  Gomory: 8
  MIR: 5
  StrongCG: 4
  Flow cover: 16
  GUB cover: 2

Explored 1 nodes (2023 simplex iterations) in 1.13 seconds (0.43 work units)
Thread count was 32 (of 80 available processors)

Solution count 2: 51.7274 52.1509 

Optimal solution found (tolerance 1.00e-04)
Best objective 5.172739385852e+01, best bound 5.172739385852e+01, gap 0.0000%
